StudentsNr = 10;
InstructorsNr = 26;
DaysNr = 1;
SlotsPerDay = 20;
AvailabilitySlotsLenght = 10;
RoomNr = 1;
ProgrammNr = 1;
DegreeNr = 2;
RolesNr = 1;
CoursesNr = 8;
InstructorsProgramm = [{1}, {1}, {1}, {1}, {1}, {1}, {1}, {1}, {1}, {1}, {1}, {1}, {1}, {1}, {1}, {1}, {1}, {1}, {1}, {1}, {1}, {1}, {1}, {1}, {1}, {1}];
InstructorRolesPerProgramm = [|{4, 6, 8, 11, 15, 16, 18, 23, 25, 26}|];
InstructorsAvailability = [|0, 1, |1, 1, |0, 1, |1, 1, |1, 1, |1, 1, |1, 1, |0, 1, |1, 1, |0, 1, |0, 0, |0, 0, |0, 1, |1, 1, |0, 1, |0, 1, |1, 1, |0, 1, |1, 1, |0, 1, |0, 1, |1, 1, |0, 0, |1, 1, |1, 1, |0, 0|];
StudentsProgramm = [1, 1, 1, 1, 1, 1, 1, 1, 1, 1];
StudentsDegree = [1, 2, 2, 2, 1, 2, 1, 2, 1, 2];
StudentsSupervisorId = [17, 5, 23, 8, 26, 23, 19, 25, 15, 24];
StudentsCourseIds = [{1, 2, 3, 4, 5, 6, 8}, {}, {}, {}, {1, 2, 3, 4, 5, 7, 8}, {}, {1, 3, 4, 5, 6, 7, 8}, {}, {1, 2, 3, 5, 6, 7, 8}, {}];
StudentsAvailability = [|1, 1, |0, 1, |0, 0, |0, 0, |0, 0, |0, 0, |1, 1, |1, 1, |0, 1, |0, 0|];
TheoryticalMinCard = [0, 1, 0, 0, 0, 0, 0, 0, 0, 1];
CoursesInstructorIds = [{1, 2, 5, 6, 8, 9, 10, 12, 16, 19, 21, 23, 24, 25}, {1, 3, 6, 7, 8, 15, 16, 19, 23, 24, 25}, {2, 5, 6, 8, 9, 11, 13, 16, 18, 19, 24, 25, 26}, {1, 3, 4, 5, 6, 10, 12, 13, 15, 17, 19, 20, 23, 24, 25}, {1, 3, 4, 5, 6, 11, 13, 14, 15, 17, 18, 19, 21, 22, 23, 26}, {1, 3, 4, 5, 6, 8, 9, 11, 12, 13, 16, 17, 18, 19, 20, 21, 22, 24, 26}, {6, 14, 15, 18, 19}, {1, 4, 5, 6, 9, 12, 13, 16, 24, 25}];
RolesDemands = [8];
RolesContinuity = [];
ExamLen = [2, 2, 2, 2, 2, 2, 2, 2, 2, 2];
LunchTsMinLen = 0;
LunchStarts = [5..15];
SupervisorAvailable = 0;
OptimalLunchLenght = [1, 3];
OptimalStartTs = [0, 1];
OptimalFinishTs = [0, 20];
MinimizeRooms = 200;
RolesSoftContinuity = [|1|2|];
SameDegreeInRoom = 20;
Mergeability = 1;
